c SAT Generator for power-law distributed variable frequencies
c -g u -v 20 -c 91 -k 3 -p 2.750000 -b 3.200000 -f /home/schmidt/Devel/ni-kop-sat/data/ensemble/ruf20-91/ruf20-91-581 -u 1 -U 1 -s 2918454913
p cnf 20 91
4 7 -15 0
5 10 11 0
-1 -9 10 0
-5 -15 17 0
-1 15 17 0
6 7 18 0
-5 -18 20 0
-9 -11 -12 0
-6 -11 -19 0
2 11 -17 0
7 -13 16 0
4 12 -14 0
-13 18 19 0
-12 -15 -16 0
-1 -10 -19 0
-1 -7 15 0
3 7 20 0
4 7 -8 0
3 7 9 0
-4 18 19 0
-10 13 -16 0
-4 13 -16 0
11 -12 -20 0
10 -14 15 0
-7 9 -15 0
7 -10 11 0
17 19 -20 0
7 -19 20 0
-3 -4 -12 0
-13 14 -20 0
-7 12 -17 0
-14 -15 -16 0
-6 -12 14 0
-7 -9 -18 0
5 7 -17 0
8 -18 19 0
-6 -11 18 0
4 5 12 0
-4 -12 -15 0
4 12 14 0
11 -15 -16 0
-7 9 -16 0
-10 -15 18 0
-1 3 13 0
3 -18 -20 0
-6 13 -19 0
-4 -5 -14 0
4 -7 16 0
-4 6 -17 0
1 6 9 0
13 -15 19 0
3 -11 15 0
1 4 19 0
-6 -14 20 0
16 18 19 0
1 4 -15 0
-3 10 16 0
13 16 20 0
-2 -12 20 0
3 5 14 0
-9 15 20 0
4 12 16 0
4 -6 20 0
-1 -15 -18 0
15 -16 -19 0
-7 -10 17 0
8 17 -19 0
3 9 -12 0
14 16 19 0
7 -12 -16 0
2 7 -10 0
-9 12 20 0
-1 -10 13 0
-1 8 12 0
3 10 13 0
-5 -6 7 0
-9 -11 -16 0
-6 -16 -19 0
5 -6 -13 0
12 15 19 0
2 -13 15 0
8 -9 19 0
1 -7 14 0
1 -4 7 0
-1 -3 16 0
2 3 11 0
-15 -17 -19 0
1 5 -6 0
2 4 7 0
-6 -15 -17 0
-8 10 -12 0
